LPFile/20_2_nonvalidly/20_2_nonvalidly_1.lp
Minimize
   z: 140 quantity_e_0_0 + 151 quantity_e_1_0 + 142 quantity_e_2_0 + 220 quantity_e_3_0 + 316 quantity_e_4_0 + 285 quantity_e_5_0 + 274 quantity_e_6_0 + 194 quantity_e_7_0 + 269 quantity_e_8_0 + 130 quantity_e_9_0 + 153 quantity_e_10_0 + 63 quantity_e_11_0 + 75 quantity_e_12_0 + 95 quantity_e_13_0 + 95 quantity_e_14_0 + 84 quantity_e_15_0 + 155 quantity_e_16_0 + 151 quantity_e_17_0 + 306 quantity_e_18_0 + 294 quantity_e_19_0 + 109 quantity_e_20_0 + 7 quantity_e_21_0 + 161 quantity_e_22_0 + 149 quantity_e_23_0 + 179 quantity_e_24_0 + 74 quantity_e_25_0 + 149 quantity_e_26_0 + 23 quantity_e_27_0 + 164 quantity_e_28_0 + 47 quantity_e_29_0 + 136 quantity_e_30_0 + 117 quantity_e_31_0 + 200 quantity_e_32_0 + 270 quantity_e_33_0 + 5 quantity_e_34_0 + 48 quantity_e_35_0 + 104 quantity_e_36_0 + 125 quantity_e_37_0 + 242 quantity_e_38_0 + 153 quantity_e_39_0 + 197 quantity_e_40_0 + 179 quantity_e_41_0 + 58 quantity_e_42_0 + 3 quantity_e_43_0 + 137 quantity_e_44_0 + 174 quantity_e_45_0 + 97 quantity_e_46_0 + 162 quantity_e_47_0 + 51 quantity_e_48_0 + 197 quantity_e_49_0 + 113 quantity_e_50_0 + 185 quantity_e_51_0 + 197 quantity_e_52_0 + 134 quantity_e_53_0 + 92 quantity_e_54_0 + 41 quantity_e_55_0 + 154 quantity_e_56_0 + 138 quantity_e_57_0 + 230 quantity_e_58_0 + 197 quantity_e_59_0 + 39 quantity_e_60_0 + 157 quantity_e_0_1 + 167 quantity_e_1_1 + 141 quantity_e_2_1 + 215 quantity_e_3_1 + 309 quantity_e_4_1 + 284 quantity_e_5_1 + 275 quantity_e_6_1 + 180 quantity_e_7_1 + 257 quantity_e_8_1 + 130 quantity_e_9_1 + 156 quantity_e_10_1 + 56 quantity_e_11_1 + 90 quantity_e_12_1 + 92 quantity_e_13_1 + 79 quantity_e_14_1 + 92 quantity_e_15_1 + 163 quantity_e_16_1 + 164 quantity_e_17_1 + 311 quantity_e_18_1 + 302 quantity_e_19_1 + 106 quantity_e_20_1 + 4 quantity_e_21_1 + 165 quantity_e_22_1 + 139 quantity_e_23_1 + 171 quantity_e_24_1 + 90 quantity_e_25_1 + 142 quantity_e_26_1 + 29 quantity_e_27_1 + 181 quantity_e_28_1 + 50 quantity_e_29_1 + 136 quantity_e_30_1 + 121 quantity_e_31_1 + 196 quantity_e_32_1 + 274 quantity_e_33_1 + 8 quantity_e_34_1 + 63 quantity_e_35_1 + 109 quantity_e_36_1 + 130 quantity_e_37_1 + 242 quantity_e_38_1 + 164 quantity_e_39_1 + 191 quantity_e_40_1 + 160 quantity_e_41_1 + 60 quantity_e_42_1 + 3 quantity_e_43_1 + 125 quantity_e_44_1 + 175 quantity_e_45_1 + 96 quantity_e_46_1 + 177 quantity_e_47_1 + 64 quantity_e_48_1 + 193 quantity_e_49_1 + 124 quantity_e_50_1 + 186 quantity_e_51_1 + 202 quantity_e_52_1 + 126 quantity_e_53_1 + 102 quantity_e_54_1 + 33 quantity_e_55_1 + 162 quantity_e_56_1 + 137 quantity_e_57_1 + 225 quantity_e_58_1 + 193 quantity_e_59_1 + 45 quantity_e_60_1
Subject to
   contraite_3_0: quantity_e_11_0 + quantity_e_13_0 - quantity_e_10_0 - quantity_e_12_0 = 0
   contraite_5_0: quantity_e_12_0 + quantity_e_23_0 - quantity_e_13_0 - quantity_e_22_0 = 0
   contraite_8_0: quantity_e_33_0 - quantity_e_32_0 = 192
   contraite_19_0: quantity_e_6_0 + quantity_e_10_0 + quantity_e_42_0 + quantity_e_54_0 + quantity_e_58_0 - quantity_e_7_0 - quantity_e_11_0 - quantity_e_43_0 - quantity_e_55_0 - quantity_e_59_0 = 0
   contraite_10_0: quantity_e_34_0 + quantity_e_43_0 + quantity_e_45_0 - quantity_e_35_0 - quantity_e_42_0 - quantity_e_44_0 = 1313
   contraite_3_1: quantity_e_11_1 + quantity_e_13_1 - quantity_e_10_1 - quantity_e_12_1 = 923
   contraite_5_1: quantity_e_12_1 + quantity_e_23_1 - quantity_e_13_1 - quantity_e_22_1 = 410
   contraite_8_1: quantity_e_33_1 - quantity_e_32_1 = 0
   contraite_19_1: quantity_e_6_1 + quantity_e_10_1 + quantity_e_42_1 + quantity_e_54_1 + quantity_e_58_1 - quantity_e_7_1 - quantity_e_11_1 - quantity_e_43_1 - quantity_e_55_1 - quantity_e_59_1 = 743
   contraite_10_1: quantity_e_34_1 + quantity_e_43_1 + quantity_e_45_1 - quantity_e_35_1 - quantity_e_42_1 - quantity_e_44_1 = 0
   contraite_11_0: quantity_e_17_0 - quantity_e_16_0 <= 162
   contraite_18_0: quantity_e_21_0 + quantity_e_31_0 - quantity_e_20_0 - quantity_e_30_0 <= 895
   contraite_6_0: quantity_e_15_0 + quantity_e_24_0 + quantity_e_26_0 - quantity_e_14_0 - quantity_e_25_0 - quantity_e_27_0 <= 449
   contraite_4_0: quantity_e_1_0 + quantity_e_14_0 + quantity_e_16_0 + quantity_e_18_0 + quantity_e_20_0 - quantity_e_0_0 - quantity_e_15_0 - quantity_e_17_0 - quantity_e_19_0 - quantity_e_21_0 <= 0
   contraite_11_1: quantity_e_17_1 - quantity_e_16_1 <= 293
   contraite_18_1: quantity_e_21_1 + quantity_e_31_1 - quantity_e_20_1 - quantity_e_30_1 <= 947
   contraite_6_1: quantity_e_15_1 + quantity_e_24_1 + quantity_e_26_1 - quantity_e_14_1 - quantity_e_25_1 - quantity_e_27_1 <= 0
   contraite_4_1: quantity_e_1_1 + quantity_e_14_1 + quantity_e_16_1 + quantity_e_18_1 + quantity_e_20_1 - quantity_e_0_1 - quantity_e_15_1 - quantity_e_17_1 - quantity_e_19_1 - quantity_e_21_1 <= 837
   contraite_0_0: quantity_e_1_0 + quantity_e_3_0 - quantity_e_0_0 - quantity_e_2_0 = 0
   contraite_1_0: quantity_e_5_0 + quantity_e_7_0 - quantity_e_4_0 - quantity_e_6_0 = 0
   contraite_2_0: quantity_e_9_0 - quantity_e_8_0 = 0
   contraite_7_0: quantity_e_4_0 + quantity_e_24_0 + quantity_e_29_0 + quantity_e_31_0 - quantity_e_5_0 - quantity_e_25_0 - quantity_e_28_0 - quantity_e_30_0 = 0
   contraite_9_0: quantity_e_35_0 + quantity_e_37_0 + quantity_e_39_0 + quantity_e_41_0 - quantity_e_34_0 - quantity_e_36_0 - quantity_e_38_0 - quantity_e_40_0 = 0
   contraite_12_0: quantity_e_2_0 + quantity_e_40_0 + quantity_e_47_0 + quantity_e_49_0 - quantity_e_3_0 - quantity_e_41_0 - quantity_e_46_0 - quantity_e_48_0 = 0
   contraite_13_0: quantity_e_8_0 + quantity_e_28_0 + quantity_e_38_0 + quantity_e_51_0 - quantity_e_9_0 - quantity_e_29_0 - quantity_e_39_0 - quantity_e_50_0 = 0
   contraite_14_0: quantity_e_36_0 + quantity_e_46_0 + quantity_e_53_0 + quantity_e_55_0 + quantity_e_57_0 - quantity_e_37_0 - quantity_e_47_0 - quantity_e_52_0 - quantity_e_54_0 - quantity_e_56_0 = 0
   contraite_15_0: quantity_e_18_0 + quantity_e_22_0 + quantity_e_32_0 + quantity_e_48_0 + quantity_e_59_0 - quantity_e_19_0 - quantity_e_23_0 - quantity_e_33_0 - quantity_e_49_0 - quantity_e_58_0 = 0
   contraite_16_0: quantity_e_56_0 - quantity_e_57_0 = 0
   contraite_17_0: quantity_e_26_0 + quantity_e_44_0 + quantity_e_50_0 + quantity_e_52_0 - quantity_e_27_0 - quantity_e_45_0 - quantity_e_51_0 - quantity_e_53_0 = 0
   contraite_0_1: quantity_e_1_1 + quantity_e_3_1 - quantity_e_0_1 - quantity_e_2_1 = 0
   contraite_1_1: quantity_e_5_1 + quantity_e_7_1 - quantity_e_4_1 - quantity_e_6_1 = 0
   contraite_2_1: quantity_e_9_1 - quantity_e_8_1 = 0
   contraite_7_1: quantity_e_4_1 + quantity_e_24_1 + quantity_e_29_1 + quantity_e_31_1 - quantity_e_5_1 - quantity_e_25_1 - quantity_e_28_1 - quantity_e_30_1 = 0
   contraite_9_1: quantity_e_35_1 + quantity_e_37_1 + quantity_e_39_1 + quantity_e_41_1 - quantity_e_34_1 - quantity_e_36_1 - quantity_e_38_1 - quantity_e_40_1 = 0
   contraite_12_1: quantity_e_2_1 + quantity_e_40_1 + quantity_e_47_1 + quantity_e_49_1 - quantity_e_3_1 - quantity_e_41_1 - quantity_e_46_1 - quantity_e_48_1 = 0
   contraite_13_1: quantity_e_8_1 + quantity_e_28_1 + quantity_e_38_1 + quantity_e_51_1 - quantity_e_9_1 - quantity_e_29_1 - quantity_e_39_1 - quantity_e_50_1 = 0
   contraite_14_1: quantity_e_36_1 + quantity_e_46_1 + quantity_e_53_1 + quantity_e_55_1 + quantity_e_57_1 - quantity_e_37_1 - quantity_e_47_1 - quantity_e_52_1 - quantity_e_54_1 - quantity_e_56_1 = 0
   contraite_15_1: quantity_e_18_1 + quantity_e_22_1 + quantity_e_32_1 + quantity_e_48_1 + quantity_e_59_1 - quantity_e_19_1 - quantity_e_23_1 - quantity_e_33_1 - quantity_e_49_1 - quantity_e_58_1 = 0
   contraite_16_1: quantity_e_56_1 - quantity_e_57_1 = 0
   contraite_17_1: quantity_e_26_1 + quantity_e_44_1 + quantity_e_50_1 + quantity_e_52_1 - quantity_e_27_1 - quantity_e_45_1 - quantity_e_51_1 - quantity_e_53_1 = 0
Bounds
   quantity_e_0_0 >= 0
   quantity_e_1_0 >= 0
   quantity_e_2_0 >= 0
   quantity_e_3_0 >= 0
   quantity_e_4_0 >= 0
   quantity_e_5_0 >= 0
   quantity_e_6_0 >= 0
   quantity_e_7_0 >= 0
   quantity_e_8_0 >= 0
   quantity_e_9_0 >= 0
   quantity_e_10_0 >= 0
   quantity_e_11_0 >= 0
   quantity_e_12_0 >= 0
   quantity_e_13_0 >= 0
   quantity_e_14_0 >= 0
   quantity_e_15_0 >= 0
   quantity_e_16_0 >= 0
   quantity_e_17_0 >= 0
   quantity_e_18_0 >= 0
   quantity_e_19_0 >= 0
   quantity_e_20_0 >= 0
   quantity_e_21_0 >= 0
   quantity_e_22_0 >= 0
   quantity_e_23_0 >= 0
   quantity_e_24_0 >= 0
   quantity_e_25_0 >= 0
   quantity_e_26_0 >= 0
   quantity_e_27_0 >= 0
   quantity_e_28_0 >= 0
   quantity_e_29_0 >= 0
   quantity_e_30_0 >= 0
   quantity_e_31_0 >= 0
   quantity_e_32_0 >= 0
   quantity_e_33_0 >= 0
   quantity_e_34_0 >= 0
   quantity_e_35_0 >= 0
   quantity_e_36_0 >= 0
   quantity_e_37_0 >= 0
   quantity_e_38_0 >= 0
   quantity_e_39_0 >= 0
   quantity_e_40_0 >= 0
   quantity_e_41_0 >= 0
   quantity_e_42_0 >= 0
   quantity_e_43_0 >= 0
   quantity_e_44_0 >= 0
   quantity_e_45_0 >= 0
   quantity_e_46_0 >= 0
   quantity_e_47_0 >= 0
   quantity_e_48_0 >= 0
   quantity_e_49_0 >= 0
   quantity_e_50_0 >= 0
   quantity_e_51_0 >= 0
   quantity_e_52_0 >= 0
   quantity_e_53_0 >= 0
   quantity_e_54_0 >= 0
   quantity_e_55_0 >= 0
   quantity_e_56_0 >= 0
   quantity_e_57_0 >= 0
   quantity_e_58_0 >= 0
   quantity_e_59_0 >= 0
   quantity_e_60_0 >= 0
   quantity_e_0_1 >= 0
   quantity_e_1_1 >= 0
   quantity_e_2_1 >= 0
   quantity_e_3_1 >= 0
   quantity_e_4_1 >= 0
   quantity_e_5_1 >= 0
   quantity_e_6_1 >= 0
   quantity_e_7_1 >= 0
   quantity_e_8_1 >= 0
   quantity_e_9_1 >= 0
   quantity_e_10_1 >= 0
   quantity_e_11_1 >= 0
   quantity_e_12_1 >= 0
   quantity_e_13_1 >= 0
   quantity_e_14_1 >= 0
   quantity_e_15_1 >= 0
   quantity_e_16_1 >= 0
   quantity_e_17_1 >= 0
   quantity_e_18_1 >= 0
   quantity_e_19_1 >= 0
   quantity_e_20_1 >= 0
   quantity_e_21_1 >= 0
   quantity_e_22_1 >= 0
   quantity_e_23_1 >= 0
   quantity_e_24_1 >= 0
   quantity_e_25_1 >= 0
   quantity_e_26_1 >= 0
   quantity_e_27_1 >= 0
   quantity_e_28_1 >= 0
   quantity_e_29_1 >= 0
   quantity_e_30_1 >= 0
   quantity_e_31_1 >= 0
   quantity_e_32_1 >= 0
   quantity_e_33_1 >= 0
   quantity_e_34_1 >= 0
   quantity_e_35_1 >= 0
   quantity_e_36_1 >= 0
   quantity_e_37_1 >= 0
   quantity_e_38_1 >= 0
   quantity_e_39_1 >= 0
   quantity_e_40_1 >= 0
   quantity_e_41_1 >= 0
   quantity_e_42_1 >= 0
   quantity_e_43_1 >= 0
   quantity_e_44_1 >= 0
   quantity_e_45_1 >= 0
   quantity_e_46_1 >= 0
   quantity_e_47_1 >= 0
   quantity_e_48_1 >= 0
   quantity_e_49_1 >= 0
   quantity_e_50_1 >= 0
   quantity_e_51_1 >= 0
   quantity_e_52_1 >= 0
   quantity_e_53_1 >= 0
   quantity_e_54_1 >= 0
   quantity_e_55_1 >= 0
   quantity_e_56_1 >= 0
   quantity_e_57_1 >= 0
   quantity_e_58_1 >= 0
   quantity_e_59_1 >= 0
   quantity_e_60_1 >= 0
Integer
   quantity_e_0_0
   quantity_e_1_0
   quantity_e_2_0
   quantity_e_3_0
   quantity_e_4_0
   quantity_e_5_0
   quantity_e_6_0
   quantity_e_7_0
   quantity_e_8_0
   quantity_e_9_0
   quantity_e_10_0
   quantity_e_11_0
   quantity_e_12_0
   quantity_e_13_0
   quantity_e_14_0
   quantity_e_15_0
   quantity_e_16_0
   quantity_e_17_0
   quantity_e_18_0
   quantity_e_19_0
   quantity_e_20_0
   quantity_e_21_0
   quantity_e_22_0
   quantity_e_23_0
   quantity_e_24_0
   quantity_e_25_0
   quantity_e_26_0
   quantity_e_27_0
   quantity_e_28_0
   quantity_e_29_0
   quantity_e_30_0
   quantity_e_31_0
   quantity_e_32_0
   quantity_e_33_0
   quantity_e_34_0
   quantity_e_35_0
   quantity_e_36_0
   quantity_e_37_0
   quantity_e_38_0
   quantity_e_39_0
   quantity_e_40_0
   quantity_e_41_0
   quantity_e_42_0
   quantity_e_43_0
   quantity_e_44_0
   quantity_e_45_0
   quantity_e_46_0
   quantity_e_47_0
   quantity_e_48_0
   quantity_e_49_0
   quantity_e_50_0
   quantity_e_51_0
   quantity_e_52_0
   quantity_e_53_0
   quantity_e_54_0
   quantity_e_55_0
   quantity_e_56_0
   quantity_e_57_0
   quantity_e_58_0
   quantity_e_59_0
   quantity_e_60_0
   quantity_e_0_1
   quantity_e_1_1
   quantity_e_2_1
   quantity_e_3_1
   quantity_e_4_1
   quantity_e_5_1
   quantity_e_6_1
   quantity_e_7_1
   quantity_e_8_1
   quantity_e_9_1
   quantity_e_10_1
   quantity_e_11_1
   quantity_e_12_1
   quantity_e_13_1
   quantity_e_14_1
   quantity_e_15_1
   quantity_e_16_1
   quantity_e_17_1
   quantity_e_18_1
   quantity_e_19_1
   quantity_e_20_1
   quantity_e_21_1
   quantity_e_22_1
   quantity_e_23_1
   quantity_e_24_1
   quantity_e_25_1
   quantity_e_26_1
   quantity_e_27_1
   quantity_e_28_1
   quantity_e_29_1
   quantity_e_30_1
   quantity_e_31_1
   quantity_e_32_1
   quantity_e_33_1
   quantity_e_34_1
   quantity_e_35_1
   quantity_e_36_1
   quantity_e_37_1
   quantity_e_38_1
   quantity_e_39_1
   quantity_e_40_1
   quantity_e_41_1
   quantity_e_42_1
   quantity_e_43_1
   quantity_e_44_1
   quantity_e_45_1
   quantity_e_46_1
   quantity_e_47_1
   quantity_e_48_1
   quantity_e_49_1
   quantity_e_50_1
   quantity_e_51_1
   quantity_e_52_1
   quantity_e_53_1
   quantity_e_54_1
   quantity_e_55_1
   quantity_e_56_1
   quantity_e_57_1
   quantity_e_58_1
   quantity_e_59_1
   quantity_e_60_1
End