LPFile/20_2_nonvalidly/20_2_nonvalidly_1.sol
Problem:    
Rows:       40
Columns:    122 (122 integer, 0 binary)
Non-zeros:  240
Status:     INTEGER OPTIMAL
Objective:  z = 1683245 (MINimum)

   No.   Row name        Activity     Lower bound   Upper bound
------ ------------    ------------- ------------- -------------
     1 contraite_3_0
                                   0             0             = 
     2 contraite_5_0
                                   0             0             = 
     3 contraite_8_0
                                 192           192             = 
     4 contraite_19_0
                                   0             0             = 
     5 contraite_10_0
                                1313          1313             = 
     6 contraite_3_1
                                 923           923             = 
     7 contraite_5_1
                                 410           410             = 
     8 contraite_8_1
                                   0             0             = 
     9 contraite_19_1
                                 743           743             = 
    10 contraite_10_1
                                   0             0             = 
    11 contraite_11_0
                                 161                         162 
    12 contraite_18_0
                                 895                         895 
    13 contraite_6_0
                                 449                         449 
    14 contraite_4_0
                                   0                           0 
    15 contraite_11_1
                                 292                         293 
    16 contraite_18_1
                                 947                         947 
    17 contraite_6_1
                                   0                           0 
    18 contraite_4_1
                                 837                         837 
    19 contraite_0_0
                                   0             0             = 
    20 contraite_1_0
                                   0             0             = 
    21 contraite_2_0
                                   0             0             = 
    22 contraite_7_0
                                   0             0             = 
    23 contraite_9_0
                                   0             0             = 
    24 contraite_12_0
                                   0             0             = 
    25 contraite_13_0
                                   0             0             = 
    26 contraite_14_0
                                   0             0             = 
    27 contraite_15_0
                                   0             0             = 
    28 contraite_16_0
                                   0             0             = 
    29 contraite_17_0
                                   0             0             = 
    30 contraite_0_1
                                   0             0             = 
    31 contraite_1_1
                                   0             0             = 
    32 contraite_2_1
                                   0             0             = 
    33 contraite_7_1
                                   0             0             = 
    34 contraite_9_1
                                   0             0             = 
    35 contraite_12_1
                                   0             0             = 
    36 contraite_13_1
                                   0             0             = 
    37 contraite_14_1
                                   0             0             = 
    38 contraite_15_1
                                   0             0             = 
    39 contraite_16_1
                                   0             0             = 
    40 contraite_17_1
                                   0             0             = 

   No. Column name       Activity     Lower bound   Upper bound
------ ------------    ------------- ------------- -------------
     1 quantity_e_0_0
                    *              0             0               
     2 quantity_e_1_0
                    *              0             0               
     3 quantity_e_2_0
                    *              0             0               
     4 quantity_e_3_0
                    *              0             0               
     5 quantity_e_4_0
                    *              0             0               
     6 quantity_e_5_0
                    *              0             0               
     7 quantity_e_6_0
                    *              0             0               
     8 quantity_e_7_0
                    *              0             0               
     9 quantity_e_8_0
                    *              0             0               
    10 quantity_e_9_0
                    *              0             0               
    11 quantity_e_10_0
                    *              0             0               
    12 quantity_e_11_0
                    *              0             0               
    13 quantity_e_12_0
                    *              0             0               
    14 quantity_e_13_0
                    *              0             0               
    15 quantity_e_14_0
                    *            864             0               
    16 quantity_e_15_0
                    *              0             0               
    17 quantity_e_16_0
                    *              0             0               
    18 quantity_e_17_0
                    *            161             0               
    19 quantity_e_18_0
                    *            192             0               
    20 quantity_e_19_0
                    *              0             0               
    21 quantity_e_20_0
                    *              0             0               
    22 quantity_e_21_0
                    *            895             0               
    23 quantity_e_22_0
                    *              0             0               
    24 quantity_e_23_0
                    *              0             0               
    25 quantity_e_24_0
                    *              0             0               
    26 quantity_e_25_0
                    *              0             0               
    27 quantity_e_26_0
                    *           1313             0               
    28 quantity_e_27_0
                    *              0             0               
    29 quantity_e_28_0
                    *              0             0               
    30 quantity_e_29_0
                    *              0             0               
    31 quantity_e_30_0
                    *              0             0               
    32 quantity_e_31_0
                    *              0             0               
    33 quantity_e_32_0
                    *              0             0               
    34 quantity_e_33_0
                    *            192             0               
    35 quantity_e_34_0
                    *              0             0               
    36 quantity_e_35_0
                    *              0             0               
    37 quantity_e_36_0
                    *              0             0               
    38 quantity_e_37_0
                    *              0             0               
    39 quantity_e_38_0
                    *              0             0               
    40 quantity_e_39_0
                    *              0             0               
    41 quantity_e_40_0
                    *              0             0               
    42 quantity_e_41_0
                    *              0             0               
    43 quantity_e_42_0
                    *              0             0               
    44 quantity_e_43_0
                    *              0             0               
    45 quantity_e_44_0
                    *              0             0               
    46 quantity_e_45_0
                    *           1313             0               
    47 quantity_e_46_0
                    *              0             0               
    48 quantity_e_47_0
                    *              0             0               
    49 quantity_e_48_0
                    *              0             0               
    50 quantity_e_49_0
                    *              0             0               
    51 quantity_e_50_0
                    *              0             0               
    52 quantity_e_51_0
                    *              0             0               
    53 quantity_e_52_0
                    *              0             0               
    54 quantity_e_53_0
                    *              0             0               
    55 quantity_e_54_0
                    *              0             0               
    56 quantity_e_55_0
                    *              0             0               
    57 quantity_e_56_0
                    *              0             0               
    58 quantity_e_57_0
                    *              0             0               
    59 quantity_e_58_0
                    *              0             0               
    60 quantity_e_59_0
                    *              0             0               
    61 quantity_e_60_0
                    *              0             0               
    62 quantity_e_0_1
                    *              0             0               
    63 quantity_e_1_1
                    *              0             0               
    64 quantity_e_2_1
                    *              0             0               
    65 quantity_e_3_1
                    *              0             0               
    66 quantity_e_4_1
                    *              0             0               
    67 quantity_e_5_1
                    *              0             0               
    68 quantity_e_6_1
                    *              0             0               
    69 quantity_e_7_1
                    *              0             0               
    70 quantity_e_8_1
                    *              0             0               
    71 quantity_e_9_1
                    *              0             0               
    72 quantity_e_10_1
                    *              0             0               
    73 quantity_e_11_1
                    *            923             0               
    74 quantity_e_12_1
                    *              0             0               
    75 quantity_e_13_1
                    *              0             0               
    76 quantity_e_14_1
                    *           1666             0               
    77 quantity_e_15_1
                    *              0             0               
    78 quantity_e_16_1
                    *              0             0               
    79 quantity_e_17_1
                    *            292             0               
    80 quantity_e_18_1
                    *            410             0               
    81 quantity_e_19_1
                    *              0             0               
    82 quantity_e_20_1
                    *              0             0               
    83 quantity_e_21_1
                    *            947             0               
    84 quantity_e_22_1
                    *              0             0               
    85 quantity_e_23_1
                    *            410             0               
    86 quantity_e_24_1
                    *              0             0               
    87 quantity_e_25_1
                    *              0             0               
    88 quantity_e_26_1
                    *           1666             0               
    89 quantity_e_27_1
                    *              0             0               
    90 quantity_e_28_1
                    *              0             0               
    91 quantity_e_29_1
                    *              0             0               
    92 quantity_e_30_1
                    *              0             0               
    93 quantity_e_31_1
                    *              0             0               
    94 quantity_e_32_1
                    *              0             0               
    95 quantity_e_33_1
                    *              0             0               
    96 quantity_e_34_1
                    *              0             0               
    97 quantity_e_35_1
                    *              0             0               
    98 quantity_e_36_1
                    *              0             0               
    99 quantity_e_37_1
                    *              0             0               
   100 quantity_e_38_1
                    *              0             0               
   101 quantity_e_39_1
                    *              0             0               
   102 quantity_e_40_1
                    *              0             0               
   103 quantity_e_41_1
                    *              0             0               
   104 quantity_e_42_1
                    *              0             0               
   105 quantity_e_43_1
                    *              0             0               
   106 quantity_e_44_1
                    *              0             0               
   107 quantity_e_45_1
                    *              0             0               
   108 quantity_e_46_1
                    *              0             0               
   109 quantity_e_47_1
                    *              0             0               
   110 quantity_e_48_1
                    *              0             0               
   111 quantity_e_49_1
                    *              0             0               
   112 quantity_e_50_1
                    *              0             0               
   113 quantity_e_51_1
                    *              0             0               
   114 quantity_e_52_1
                    *              0             0               
   115 quantity_e_53_1
                    *           1666             0               
   116 quantity_e_54_1
                    *           1666             0               
   117 quantity_e_55_1
                    *              0             0               
   118 quantity_e_56_1
                    *              0             0               
   119 quantity_e_57_1
                    *              0             0               
   120 quantity_e_58_1
                    *              0             0               
   121 quantity_e_59_1
                    *              0             0               
   122 quantity_e_60_1
                    *              0             0               

Integer feasibility conditions:

KKT.PE: max.abs.err = 0.00e+00 on row 0
        max.rel.err = 0.00e+00 on row 0
        High quality

KKT.PB: max.abs.err = 0.00e+00 on row 0
        max.rel.err = 0.00e+00 on row 0
        High quality

End of output
